liczbaMiejsc = 96;
liczbaPracownikow = 48;
dMin = 2.5;
procentowaZajetoscMiejscWFirmie = 0.5;
macierzOdleglosci = [[0, 1.5, 3.0, 4.5, 6.0, 7.5, 9.0, 10.5, 12.0, 13.5, 2.0, 2.5, 3.6, 4.9, 6.3, 7.8, 9.2, 10.7, 12.2, 13.6, 5.0, 5.2, 5.8, 6.7, 7.8, 9.0, 10.3, 11.6, 13.0, 14.4, 7.0, 7.2, 7.6, 8.3, 9.2, 10.3, 11.4, 12.6, 13.9, 15.2, 10.0, 10.1, 10.4, 11.0, 11.7, 12.5, 13.5, 14.5, 15.6, 16.8, 12.0, 12.1, 12.4, 12.8, 13.4, 14.2, 15.0, 15.9, 17.0, 18.1, 15.0, 15.1, 15.3, 15.7, 16.2, 16.8, 17.5, 18.3, 19.2, 20.2, 17.0, 17.1, 17.3, 17.6, 18.0, 18.6, 19.2, 20.0, 20.8, 21.7, 20.0, 20.1, 20.2, 20.5, 20.9, 21.4, 21.9, 22.6, 23.3, 24.1, 22.0, 22.1, 22.2, 22.5, 22.8, 23.2], [0, 0, 1.5, 3.0, 4.5, 6.0, 7.5, 9.0, 10.5, 12.0, 2.5, 2.0, 2.5, 3.6, 4.9, 6.3, 7.8, 9.2, 10.7, 12.2, 5.2, 5.0, 5.2, 5.8, 6.7, 7.8, 9.0, 10.3, 11.6, 13.0, 7.2, 7.0, 7.2, 7.6, 8.3, 9.2, 10.3, 11.4, 12.6, 13.9, 10.1, 10.0, 10.1, 10.4, 11.0, 11.7, 12.5, 13.5, 14.5, 15.6, 12.1, 12.0, 12.1, 12.4, 12.8, 13.4, 14.2, 15.0, 15.9, 17.0, 15.1, 15.0, 15.1, 15.3, 15.7, 16.2, 16.8, 17.5, 18.3, 19.2, 17.1, 17.0, 17.1, 17.3, 17.6, 18.0, 18.6, 19.2, 20.0, 20.8, 20.1, 20.0, 20.1, 20.2, 20.5, 20.9, 21.4, 21.9, 22.6, 23.3, 22.1, 22.0, 22.1, 22.2, 22.5, 22.8], [0, 0, 0, 1.5, 3.0, 4.5, 6.0, 7.5, 9.0, 10.5, 3.6, 2.5, 2.0, 2.5, 3.6, 4.9, 6.3, 7.8, 9.2, 10.7, 5.8, 5.2, 5.0, 5.2, 5.8, 6.7, 7.8, 9.0, 10.3, 11.6, 7.6, 7.2, 7.0, 7.2, 7.6, 8.3, 9.2, 10.3, 11.4, 12.6, 10.4, 10.1, 10.0, 10.1, 10.4, 11.0, 11.7, 12.5, 13.5, 14.5, 12.4, 12.1, 12.0, 12.1, 12.4, 12.8, 13.4, 14.2, 15.0, 15.9, 15.3, 15.1, 15.0, 15.1, 15.3, 15.7, 16.2, 16.8, 17.5, 18.3, 17.3, 17.1, 17.0, 17.1, 17.3, 17.6, 18.0, 18.6, 19.2, 20.0, 20.2, 20.1, 20.0, 20.1, 20.2, 20.5, 20.9, 21.4, 21.9, 22.6, 22.2, 22.1, 22.0, 22.1, 22.2, 22.5], [0, 0, 0, 0, 1.5, 3.0, 4.5, 6.0, 7.5, 9.0, 4.9, 3.6, 2.5, 2.0, 2.5, 3.6, 4.9, 6.3, 7.8, 9.2, 6.7, 5.8, 5.2, 5.0, 5.2, 5.8, 6.7, 7.8, 9.0, 10.3, 8.3, 7.6, 7.2, 7.0, 7.2, 7.6, 8.3, 9.2, 10.3, 11.4, 11.0, 10.4, 10.1, 10.0, 10.1, 10.4, 11.0, 11.7, 12.5, 13.5, 12.8, 12.4, 12.1, 12.0, 12.1, 12.4, 12.8, 13.4, 14.2, 15.0, 15.7, 15.3, 15.1, 15.0, 15.1, 15.3, 15.7, 16.2, 16.8, 17.5, 17.6, 17.3, 17.1, 17.0, 17.1, 17.3, 17.6, 18.0, 18.6, 19.2, 20.5, 20.2, 20.1, 20.0, 20.1, 20.2, 20.5, 20.9, 21.4, 21.9, 22.5, 22.2, 22.1, 22.0, 22.1, 22.2], [0, 0, 0, 0, 0, 1.5, 3.0, 4.5, 6.0, 7.5, 6.3, 4.9, 3.6, 2.5, 2.0, 2.5, 3.6, 4.9, 6.3, 7.8, 7.8, 6.7, 5.8, 5.2, 5.0, 5.2, 5.8, 6.7, 7.8, 9.0, 9.2, 8.3, 7.6, 7.2, 7.0, 7.2, 7.6, 8.3, 9.2, 10.3, 11.7, 11.0, 10.4, 10.1, 10.0, 10.1, 10.4, 11.0, 11.7, 12.5, 13.4, 12.8, 12.4, 12.1, 12.0, 12.1, 12.4, 12.8, 13.4, 14.2, 16.2, 15.7, 15.3, 15.1, 15.0, 15.1, 15.3, 15.7, 16.2, 16.8, 18.0, 17.6, 17.3, 17.1, 17.0, 17.1, 17.3, 17.6, 18.0, 18.6, 20.9, 20.5, 20.2, 20.1, 20.0, 20.1, 20.2, 20.5, 20.9, 21.4, 22.8, 22.5, 22.2, 22.1, 22.0, 22.1], [0, 0, 0, 0, 0, 0, 1.5, 3.0, 4.5, 6.0, 7.8, 6.3, 4.9, 3.6, 2.5, 2.0, 2.5, 3.6, 4.9, 6.3, 9.0, 7.8, 6.7, 5.8, 5.2, 5.0, 5.2, 5.8, 6.7, 7.8, 10.3, 9.2, 8.3, 7.6, 7.2, 7.0, 7.2, 7.6, 8.3, 9.2, 12.5, 11.7, 11.0, 10.4, 10.1, 10.0, 10.1, 10.4, 11.0, 11.7, 14.2, 13.4, 12.8, 12.4, 12.1, 12.0, 12.1, 12.4, 12.8, 13.4, 16.8, 16.2, 15.7, 15.3, 15.1, 15.0, 15.1, 15.3, 15.7, 16.2, 18.6, 18.0, 17.6, 17.3, 17.1, 17.0, 17.1, 17.3, 17.6, 18.0, 21.4, 20.9, 20.5, 20.2, 20.1, 20.0, 20.1, 20.2, 20.5, 20.9, 23.2, 22.8, 22.5, 22.2, 22.1, 22.0], [0, 0, 0, 0, 0, 0, 0, 1.5, 3.0, 4.5, 9.2, 7.8, 6.3, 4.9, 3.6, 2.5, 2.0, 2.5, 3.6, 4.9, 10.3, 9.0, 7.8, 6.7, 5.8, 5.2, 5.0, 5.2, 5.8, 6.7, 11.4, 10.3, 9.2, 8.3, 7.6, 7.2, 7.0, 7.2, 7.6, 8.3, 13.5, 12.5, 11.7, 11.0, 10.4, 10.1, 10.0, 10.1, 10.4, 11.0, 15.0, 14.2, 13.4, 12.8, 12.4, 12.1, 12.0, 12.1, 12.4, 12.8, 17.5, 16.8, 16.2, 15.7, 15.3, 15.1, 15.0, 15.1, 15.3, 15.7, 19.2, 18.6, 18.0, 17.6, 17.3, 17.1, 17.0, 17.1, 17.3, 17.6, 21.9, 21.4, 20.9, 20.5, 20.2, 20.1, 20.0, 20.1, 20.2, 20.5, 23.8, 23.2, 22.8, 22.5, 22.2, 22.1], [0, 0, 0, 0, 0, 0, 0, 0, 1.5, 3.0, 10.7, 9.2, 7.8, 6.3, 4.9, 3.6, 2.5, 2.0, 2.5, 3.6, 11.6, 10.3, 9.0, 7.8, 6.7, 5.8, 5.2, 5.0, 5.2, 5.8, 12.6, 11.4, 10.3, 9.2, 8.3, 7.6, 7.2, 7.0, 7.2, 7.6, 14.5, 13.5, 12.5, 11.7, 11.0, 10.4, 10.1, 10.0, 10.1, 10.4, 15.9, 15.0, 14.2, 13.4, 12.8, 12.4, 12.1, 12.0, 12.1, 12.4, 18.3, 17.5, 16.8, 16.2, 15.7, 15.3, 15.1, 15.0, 15.1, 15.3, 20.0, 19.2, 18.6, 18.0, 17.6, 17.3, 17.1, 17.0, 17.1, 17.3, 22.6, 21.9, 21.4, 20.9, 20.5, 20.2, 20.1, 20.0, 20.1, 20.2, 24.4, 23.8, 23.2, 22.8, 22.5, 22.2], [0, 0, 0, 0, 0, 0, 0, 0, 0, 1.5, 12.2, 10.7, 9.2, 7.8, 6.3, 4.9, 3.6, 2.5, 2.0, 2.5, 13.0, 11.6, 10.3, 9.0, 7.8, 6.7, 5.8, 5.2, 5.0, 5.2, 13.9, 12.6, 11.4, 10.3, 9.2, 8.3, 7.6, 7.2, 7.0, 7.2, 15.6, 14.5, 13.5, 12.5, 11.7, 11.0, 10.4, 10.1, 10.0, 10.1, 17.0, 15.9, 15.0, 14.2, 13.4, 12.8, 12.4, 12.1, 12.0, 12.1, 19.2, 18.3, 17.5, 16.8, 16.2, 15.7, 15.3, 15.1, 15.0, 15.1, 20.8, 20.0, 19.2, 18.6, 18.0, 17.6, 17.3, 17.1, 17.0, 17.1, 23.3, 22.6, 21.9, 21.4, 20.9, 20.5, 20.2, 20.1, 20.0, 20.1, 25.1, 24.4, 23.8, 23.2, 22.8, 22.5], [0, 0, 0, 0, 0, 0, 0, 0, 0, 0, 13.6, 12.2, 10.7, 9.2, 7.8, 6.3, 4.9, 3.6, 2.5, 2.0, 14.4, 13.0, 11.6, 10.3, 9.0, 7.8, 6.7, 5.8, 5.2, 5.0, 15.2, 13.9, 12.6, 11.4, 10.3, 9.2, 8.3, 7.6, 7.2, 7.0, 16.8, 15.6, 14.5, 13.5, 12.5, 11.7, 11.0, 10.4, 10.1, 10.0, 18.1, 17.0, 15.9, 15.0, 14.2, 13.4, 12.8, 12.4, 12.1, 12.0, 20.2, 19.2, 18.3, 17.5, 16.8, 16.2, 15.7, 15.3, 15.1, 15.0, 21.7, 20.8, 20.0, 19.2, 18.6, 18.0, 17.6, 17.3, 17.1, 17.0, 24.1, 23.3, 22.6, 21.9, 21.4, 20.9, 20.5, 20.2, 20.1, 20.0, 25.8, 25.1, 24.4, 23.8, 23.2, 22.8], [0, 0, 0, 0, 0, 0, 0, 0, 0, 0, 0, 1.5, 3.0, 4.5, 6.0, 7.5, 9.0, 10.5, 12.0, 13.5, 3.0, 3.4, 4.2, 5.4, 6.7, 8.1, 9.5, 10.9, 12.4, 13.8, 5.0, 5.2, 5.8, 6.7, 7.8, 9.0, 10.3, 11.6, 13.0, 14.4, 8.0, 8.1, 8.5, 9.2, 10.0, 11.0, 12.0, 13.2, 14.4, 15.7, 10.0, 10.1, 10.4, 11.0, 11.7, 12.5, 13.5, 14.5, 15.6, 16.8, 13.0, 13.1, 13.3, 13.8, 14.3, 15.0, 15.8, 16.7, 17.7, 18.7, 15.0, 15.1, 15.3, 15.7, 16.2, 16.8, 17.5, 18.3, 19.2, 20.2, 18.0, 18.1, 18.2, 18.6, 19.0, 19.5, 20.1, 20.8, 21.6, 22.5, 20.0, 20.1, 20.2, 20.5, 20.9, 21.4], [0, 0, 0, 0, 0, 0, 0, 0, 0, 0, 0, 0, 1.5, 3.0, 4.5, 6.0, 7.5, 9.0, 10.5, 12.0, 3.4, 3.0, 3.4, 4.2, 5.4, 6.7, 8.1, 9.5, 10.9, 12.4, 5.2, 5.0, 5.2, 5.8, 6.7, 7.8, 9.0, 10.3, 11.6, 13.0, 8.1, 8.0, 8.1, 8.5, 9.2, 10.0, 11.0, 12.0, 13.2, 14.4, 10.1, 10.0, 10.1, 10.4, 11.0, 11.7, 12.5, 13.5, 14.5, 15.6, 13.1, 13.0, 13.1, 13.3, 13.8, 14.3, 15.0, 15.8, 16.7, 17.7, 15.1, 15.0, 15.1, 15.3, 15.7, 16.2, 16.8, 17.5, 18.3, 19.2, 18.1, 18.0, 18.1, 18.2, 18.6, 19.0, 19.5, 20.1, 20.8, 21.6, 20.1, 20.0, 20.1, 20.2, 20.5, 20.9], [0, 0, 0, 0, 0, 0, 0, 0, 0, 0, 0, 0, 0, 1.5, 3.0, 4.5, 6.0, 7.5, 9.0, 10.5, 4.2, 3.4, 3.0, 3.4, 4.2, 5.4, 6.7, 8.1, 9.5, 10.9, 5.8, 5.2, 5.0, 5.2, 5.8, 6.7, 7.8, 9.0, 10.3, 11.6, 8.5, 8.1, 8.0, 8.1, 8.5, 9.2, 10.0, 11.0, 12.0, 13.2, 10.4, 10.1, 10.0, 10.1, 10.4, 11.0, 11.7, 12.5, 13.5, 14.5, 13.3, 13.1, 13.0, 13.1, 13.3, 13.8, 14.3, 15.0, 15.8, 16.7, 15.3, 15.1, 15.0, 15.1, 15.3, 15.7, 16.2, 16.8, 17.5, 18.3, 18.2, 18.1, 18.0, 18.1, 18.2, 18.6, 19.0, 19.5, 20.1, 20.8, 20.2, 20.1, 20.0, 20.1, 20.2, 20.5], [0, 0, 0, 0, 0, 0, 0, 0, 0, 0, 0, 0, 0, 0, 1.5, 3.0, 4.5, 6.0, 7.5, 9.0, 5.4, 4.2, 3.4, 3.0, 3.4, 4.2, 5.4, 6.7, 8.1, 9.5, 6.7, 5.8, 5.2, 5.0, 5.2, 5.8, 6.7, 7.8, 9.0, 10.3, 9.2, 8.5, 8.1, 8.0, 8.1, 8.5, 9.2, 10.0, 11.0, 12.0, 11.0, 10.4, 10.1, 10.0, 10.1, 10.4, 11.0, 11.7, 12.5, 13.5, 13.8, 13.3, 13.1, 13.0, 13.1, 13.3, 13.8, 14.3, 15.0, 15.8, 15.7, 15.3, 15.1, 15.0, 15.1, 15.3, 15.7, 16.2, 16.8, 17.5, 18.6, 18.2, 18.1, 18.0, 18.1, 18.2, 18.6, 19.0, 19.5, 20.1, 20.5, 20.2, 20.1, 20.0, 20.1, 20.2], [0, 0, 0, 0, 0, 0, 0, 0, 0, 0, 0, 0, 0, 0, 0, 1.5, 3.0, 4.5, 6.0, 7.5, 6.7, 5.4, 4.2, 3.4, 3.0, 3.4, 4.2, 5.4, 6.7, 8.1, 7.8, 6.7, 5.8, 5.2, 5.0, 5.2, 5.8, 6.7, 7.8, 9.0, 10.0, 9.2, 8.5, 8.1, 8.0, 8.1, 8.5, 9.2, 10.0, 11.0, 11.7, 11.0, 10.4, 10.1, 10.0, 10.1, 10.4, 11.0, 11.7, 12.5, 14.3, 13.8, 13.3, 13.1, 13.0, 13.1, 13.3, 13.8, 14.3, 15.0, 16.2, 15.7, 15.3, 15.1, 15.0, 15.1, 15.3, 15.7, 16.2, 16.8, 19.0, 18.6, 18.2, 18.1, 18.0, 18.1, 18.2, 18.6, 19.0, 19.5, 20.9, 20.5, 20.2, 20.1, 20.0, 20.1], [0, 0, 0, 0, 0, 0, 0, 0, 0, 0, 0, 0, 0, 0, 0, 0, 1.5, 3.0, 4.5, 6.0, 8.1, 6.7, 5.4, 4.2, 3.4, 3.0, 3.4, 4.2, 5.4, 6.7, 9.0, 7.8, 6.7, 5.8, 5.2, 5.0, 5.2, 5.8, 6.7, 7.8, 11.0, 10.0, 9.2, 8.5, 8.1, 8.0, 8.1, 8.5, 9.2, 10.0, 12.5, 11.7, 11.0, 10.4, 10.1, 10.0, 10.1, 10.4, 11.0, 11.7, 15.0, 14.3, 13.8, 13.3, 13.1, 13.0, 13.1, 13.3, 13.8, 14.3, 16.8, 16.2, 15.7, 15.3, 15.1, 15.0, 15.1, 15.3, 15.7, 16.2, 19.5, 19.0, 18.6, 18.2, 18.1, 18.0, 18.1, 18.2, 18.6, 19.0, 21.4, 20.9, 20.5, 20.2, 20.1, 20.0], [0, 0, 0, 0, 0, 0, 0, 0, 0, 0, 0, 0, 0, 0, 0, 0, 0, 1.5, 3.0, 4.5, 9.5, 8.1, 6.7, 5.4, 4.2, 3.4, 3.0, 3.4, 4.2, 5.4, 10.3, 9.0, 7.8, 6.7, 5.8, 5.2, 5.0, 5.2, 5.8, 6.7, 12.0, 11.0, 10.0, 9.2, 8.5, 8.1, 8.0, 8.1, 8.5, 9.2, 13.5, 12.5, 11.7, 11.0, 10.4, 10.1, 10.0, 10.1, 10.4, 11.0, 15.8, 15.0, 14.3, 13.8, 13.3, 13.1, 13.0, 13.1, 13.3, 13.8, 17.5, 16.8, 16.2, 15.7, 15.3, 15.1, 15.0, 15.1, 15.3, 15.7, 20.1, 19.5, 19.0, 18.6, 18.2, 18.1, 18.0, 18.1, 18.2, 18.6, 21.9, 21.4, 20.9, 20.5, 20.2, 20.1], [0, 0, 0, 0, 0, 0, 0, 0, 0, 0, 0, 0, 0, 0, 0, 0, 0, 0, 1.5, 3.0, 10.9, 9.5, 8.1, 6.7, 5.4, 4.2, 3.4, 3.0, 3.4, 4.2, 11.6, 10.3, 9.0, 7.8, 6.7, 5.8, 5.2, 5.0, 5.2, 5.8, 13.2, 12.0, 11.0, 10.0, 9.2, 8.5, 8.1, 8.0, 8.1, 8.5, 14.5, 13.5, 12.5, 11.7, 11.0, 10.4, 10.1, 10.0, 10.1, 10.4, 16.7, 15.8, 15.0, 14.3, 13.8, 13.3, 13.1, 13.0, 13.1, 13.3, 18.3, 17.5, 16.8, 16.2, 15.7, 15.3, 15.1, 15.0, 15.1, 15.3, 20.8, 20.1, 19.5, 19.0, 18.6, 18.2, 18.1, 18.0, 18.1, 18.2, 22.6, 21.9, 21.4, 20.9, 20.5, 20.2], [0, 0, 0, 0, 0, 0, 0, 0, 0, 0, 0, 0, 0, 0, 0, 0, 0, 0, 0, 1.5, 12.4, 10.9, 9.5, 8.1, 6.7, 5.4, 4.2, 3.4, 3.0, 3.4, 13.0, 11.6, 10.3, 9.0, 7.8, 6.7, 5.8, 5.2, 5.0, 5.2, 14.4, 13.2, 12.0, 11.0, 10.0, 9.2, 8.5, 8.1, 8.0, 8.1, 15.6, 14.5, 13.5, 12.5, 11.7, 11.0, 10.4, 10.1, 10.0, 10.1, 17.7, 16.7, 15.8, 15.0, 14.3, 13.8, 13.3, 13.1, 13.0, 13.1, 19.2, 18.3, 17.5, 16.8, 16.2, 15.7, 15.3, 15.1, 15.0, 15.1, 21.6, 20.8, 20.1, 19.5, 19.0, 18.6, 18.2, 18.1, 18.0, 18.1, 23.3, 22.6, 21.9, 21.4, 20.9, 20.5], [0, 0, 0, 0, 0, 0, 0, 0, 0, 0, 0, 0, 0, 0, 0, 0, 0, 0, 0, 0, 13.8, 12.4, 10.9, 9.5, 8.1, 6.7, 5.4, 4.2, 3.4, 3.0, 14.4, 13.0, 11.6, 10.3, 9.0, 7.8, 6.7, 5.8, 5.2, 5.0, 15.7, 14.4, 13.2, 12.0, 11.0, 10.0, 9.2, 8.5, 8.1, 8.0, 16.8, 15.6, 14.5, 13.5, 12.5, 11.7, 11.0, 10.4, 10.1, 10.0, 18.7, 17.7, 16.7, 15.8, 15.0, 14.3, 13.8, 13.3, 13.1, 13.0, 20.2, 19.2, 18.3, 17.5, 16.8, 16.2, 15.7, 15.3, 15.1, 15.0, 22.5, 21.6, 20.8, 20.1, 19.5, 19.0, 18.6, 18.2, 18.1, 18.0, 24.1, 23.3, 22.6, 21.9, 21.4, 20.9], [0, 0, 0, 0, 0, 0, 0, 0, 0, 0, 0, 0, 0, 0, 0, 0, 0, 0, 0, 0, 0, 1.5, 3.0, 4.5, 6.0, 7.5, 9.0, 10.5, 12.0, 13.5, 2.0, 2.5, 3.6, 4.9, 6.3, 7.8, 9.2, 10.7, 12.2, 13.6, 5.0, 5.2, 5.8, 6.7, 7.8, 9.0, 10.3, 11.6, 13.0, 14.4, 7.0, 7.2, 7.6, 8.3, 9.2, 10.3, 11.4, 12.6, 13.9, 15.2, 10.0, 10.1, 10.4, 11.0, 11.7, 12.5, 13.5, 14.5, 15.6, 16.8, 12.0, 12.1, 12.4, 12.8, 13.4, 14.2, 15.0, 15.9, 17.0, 18.1, 15.0, 15.1, 15.3, 15.7, 16.2, 16.8, 17.5, 18.3, 19.2, 20.2, 17.0, 17.1, 17.3, 17.6, 18.0, 18.6], [0, 0, 0, 0, 0, 0, 0, 0, 0, 0, 0, 0, 0, 0, 0, 0, 0, 0, 0, 0, 0, 0, 1.5, 3.0, 4.5, 6.0, 7.5, 9.0, 10.5, 12.0, 2.5, 2.0, 2.5, 3.6, 4.9, 6.3, 7.8, 9.2, 10.7, 12.2, 5.2, 5.0, 5.2, 5.8, 6.7, 7.8, 9.0, 10.3, 11.6, 13.0, 7.2, 7.0, 7.2, 7.6, 8.3, 9.2, 10.3, 11.4, 12.6, 13.9, 10.1, 10.0, 10.1, 10.4, 11.0, 11.7, 12.5, 13.5, 14.5, 15.6, 12.1, 12.0, 12.1, 12.4, 12.8, 13.4, 14.2, 15.0, 15.9, 17.0, 15.1, 15.0, 15.1, 15.3, 15.7, 16.2, 16.8, 17.5, 18.3, 19.2, 17.1, 17.0, 17.1, 17.3, 17.6, 18.0], [0, 0, 0, 0, 0, 0, 0, 0, 0, 0, 0, 0, 0, 0, 0, 0, 0, 0, 0, 0, 0, 0, 0, 1.5, 3.0, 4.5, 6.0, 7.5, 9.0, 10.5, 3.6, 2.5, 2.0, 2.5, 3.6, 4.9, 6.3, 7.8, 9.2, 10.7, 5.8, 5.2, 5.0, 5.2, 5.8, 6.7, 7.8, 9.0, 10.3, 11.6, 7.6, 7.2, 7.0, 7.2, 7.6, 8.3, 9.2, 10.3, 11.4, 12.6, 10.4, 10.1, 10.0, 10.1, 10.4, 11.0, 11.7, 12.5, 13.5, 14.5, 12.4, 12.1, 12.0, 12.1, 12.4, 12.8, 13.4, 14.2, 15.0, 15.9, 15.3, 15.1, 15.0, 15.1, 15.3, 15.7, 16.2, 16.8, 17.5, 18.3, 17.3, 17.1, 17.0, 17.1, 17.3, 17.6], [0, 0, 0, 0, 0, 0, 0, 0, 0, 0, 0, 0, 0, 0, 0, 0, 0, 0, 0, 0, 0, 0, 0, 0, 1.5, 3.0, 4.5, 6.0, 7.5, 9.0, 4.9, 3.6, 2.5, 2.0, 2.5, 3.6, 4.9, 6.3, 7.8, 9.2, 6.7, 5.8, 5.2, 5.0, 5.2, 5.8, 6.7, 7.8, 9.0, 10.3, 8.3, 7.6, 7.2, 7.0, 7.2, 7.6, 8.3, 9.2, 10.3, 11.4, 11.0, 10.4, 10.1, 10.0, 10.1, 10.4, 11.0, 11.7, 12.5, 13.5, 12.8, 12.4, 12.1, 12.0, 12.1, 12.4, 12.8, 13.4, 14.2, 15.0, 15.7, 15.3, 15.1, 15.0, 15.1, 15.3, 15.7, 16.2, 16.8, 17.5, 17.6, 17.3, 17.1, 17.0, 17.1, 17.3], [0, 0, 0, 0, 0, 0, 0, 0, 0, 0, 0, 0, 0, 0, 0, 0, 0, 0, 0, 0, 0, 0, 0, 0, 0, 1.5, 3.0, 4.5, 6.0, 7.5, 6.3, 4.9, 3.6, 2.5, 2.0, 2.5, 3.6, 4.9, 6.3, 7.8, 7.8, 6.7, 5.8, 5.2, 5.0, 5.2, 5.8, 6.7, 7.8, 9.0, 9.2, 8.3, 7.6, 7.2, 7.0, 7.2, 7.6, 8.3, 9.2, 10.3, 11.7, 11.0, 10.4, 10.1, 10.0, 10.1, 10.4, 11.0, 11.7, 12.5, 13.4, 12.8, 12.4, 12.1, 12.0, 12.1, 12.4, 12.8, 13.4, 14.2, 16.2, 15.7, 15.3, 15.1, 15.0, 15.1, 15.3, 15.7, 16.2, 16.8, 18.0, 17.6, 17.3, 17.1, 17.0, 17.1], [0, 0, 0, 0, 0, 0, 0, 0, 0, 0, 0, 0, 0, 0, 0, 0, 0, 0, 0, 0, 0, 0, 0, 0, 0, 0, 1.5, 3.0, 4.5, 6.0, 7.8, 6.3, 4.9, 3.6, 2.5, 2.0, 2.5, 3.6, 4.9, 6.3, 9.0, 7.8, 6.7, 5.8, 5.2, 5.0, 5.2, 5.8, 6.7, 7.8, 10.3, 9.2, 8.3, 7.6, 7.2, 7.0, 7.2, 7.6, 8.3, 9.2, 12.5, 11.7, 11.0, 10.4, 10.1, 10.0, 10.1, 10.4, 11.0, 11.7, 14.2, 13.4, 12.8, 12.4, 12.1, 12.0, 12.1, 12.4, 12.8, 13.4, 16.8, 16.2, 15.7, 15.3, 15.1, 15.0, 15.1, 15.3, 15.7, 16.2, 18.6, 18.0, 17.6, 17.3, 17.1, 17.0], [0, 0, 0, 0, 0, 0, 0, 0, 0, 0, 0, 0, 0, 0, 0, 0, 0, 0, 0, 0, 0, 0, 0, 0, 0, 0, 0, 1.5, 3.0, 4.5, 9.2, 7.8, 6.3, 4.9, 3.6, 2.5, 2.0, 2.5, 3.6, 4.9, 10.3, 9.0, 7.8, 6.7, 5.8, 5.2, 5.0, 5.2, 5.8, 6.7, 11.4, 10.3, 9.2, 8.3, 7.6, 7.2, 7.0, 7.2, 7.6, 8.3, 13.5, 12.5, 11.7, 11.0, 10.4, 10.1, 10.0, 10.1, 10.4, 11.0, 15.0, 14.2, 13.4, 12.8, 12.4, 12.1, 12.0, 12.1, 12.4, 12.8, 17.5, 16.8, 16.2, 15.7, 15.3, 15.1, 15.0, 15.1, 15.3, 15.7, 19.2, 18.6, 18.0, 17.6, 17.3, 17.1], [0, 0, 0, 0, 0, 0, 0, 0, 0, 0, 0, 0, 0, 0, 0, 0, 0, 0, 0, 0, 0, 0, 0, 0, 0, 0, 0, 0, 1.5, 3.0, 10.7, 9.2, 7.8, 6.3, 4.9, 3.6, 2.5, 2.0, 2.5, 3.6, 11.6, 10.3, 9.0, 7.8, 6.7, 5.8, 5.2, 5.0, 5.2, 5.8, 12.6, 11.4, 10.3, 9.2, 8.3, 7.6, 7.2, 7.0, 7.2, 7.6, 14.5, 13.5, 12.5, 11.7, 11.0, 10.4, 10.1, 10.0, 10.1, 10.4, 15.9, 15.0, 14.2, 13.4, 12.8, 12.4, 12.1, 12.0, 12.1, 12.4, 18.3, 17.5, 16.8, 16.2, 15.7, 15.3, 15.1, 15.0, 15.1, 15.3, 20.0, 19.2, 18.6, 18.0, 17.6, 17.3], [0, 0, 0, 0, 0, 0, 0, 0, 0, 0, 0, 0, 0, 0, 0, 0, 0, 0, 0, 0, 0, 0, 0, 0, 0, 0, 0, 0, 0, 1.5, 12.2, 10.7, 9.2, 7.8, 6.3, 4.9, 3.6, 2.5, 2.0, 2.5, 13.0, 11.6, 10.3, 9.0, 7.8, 6.7, 5.8, 5.2, 5.0, 5.2, 13.9, 12.6, 11.4, 10.3, 9.2, 8.3, 7.6, 7.2, 7.0, 7.2, 15.6, 14.5, 13.5, 12.5, 11.7, 11.0, 10.4, 10.1, 10.0, 10.1, 17.0, 15.9, 15.0, 14.2, 13.4, 12.8, 12.4, 12.1, 12.0, 12.1, 19.2, 18.3, 17.5, 16.8, 16.2, 15.7, 15.3, 15.1, 15.0, 15.1, 20.8, 20.0, 19.2, 18.6, 18.0, 17.6], [0, 0, 0, 0, 0, 0, 0, 0, 0, 0, 0, 0, 0, 0, 0, 0, 0, 0, 0, 0, 0, 0, 0, 0, 0, 0, 0, 0, 0, 0, 13.6, 12.2, 10.7, 9.2, 7.8, 6.3, 4.9, 3.6, 2.5, 2.0, 14.4, 13.0, 11.6, 10.3, 9.0, 7.8, 6.7, 5.8, 5.2, 5.0, 15.2, 13.9, 12.6, 11.4, 10.3, 9.2, 8.3, 7.6, 7.2, 7.0, 16.8, 15.6, 14.5, 13.5, 12.5, 11.7, 11.0, 10.4, 10.1, 10.0, 18.1, 17.0, 15.9, 15.0, 14.2, 13.4, 12.8, 12.4, 12.1, 12.0, 20.2, 19.2, 18.3, 17.5, 16.8, 16.2, 15.7, 15.3, 15.1, 15.0, 21.7, 20.8, 20.0, 19.2, 18.6, 18.0], [0, 0, 0, 0, 0, 0, 0, 0, 0, 0, 0, 0, 0, 0, 0, 0, 0, 0, 0, 0, 0, 0, 0, 0, 0, 0, 0, 0, 0, 0, 0, 1.5, 3.0, 4.5, 6.0, 7.5, 9.0, 10.5, 12.0, 13.5, 3.0, 3.4, 4.2, 5.4, 6.7, 8.1, 9.5, 10.9, 12.4, 13.8, 5.0, 5.2, 5.8, 6.7, 7.8, 9.0, 10.3, 11.6, 13.0, 14.4, 8.0, 8.1, 8.5, 9.2, 10.0, 11.0, 12.0, 13.2, 14.4, 15.7, 10.0, 10.1, 10.4, 11.0, 11.7, 12.5, 13.5, 14.5, 15.6, 16.8, 13.0, 13.1, 13.3, 13.8, 14.3, 15.0, 15.8, 16.7, 17.7, 18.7, 15.0, 15.1, 15.3, 15.7, 16.2, 16.8], [0, 0, 0, 0, 0, 0, 0, 0, 0, 0, 0, 0, 0, 0, 0, 0, 0, 0, 0, 0, 0, 0, 0, 0, 0, 0, 0, 0, 0, 0, 0, 0, 1.5, 3.0, 4.5, 6.0, 7.5, 9.0, 10.5, 12.0, 3.4, 3.0, 3.4, 4.2, 5.4, 6.7, 8.1, 9.5, 10.9, 12.4, 5.2, 5.0, 5.2, 5.8, 6.7, 7.8, 9.0, 10.3, 11.6, 13.0, 8.1, 8.0, 8.1, 8.5, 9.2, 10.0, 11.0, 12.0, 13.2, 14.4, 10.1, 10.0, 10.1, 10.4, 11.0, 11.7, 12.5, 13.5, 14.5, 15.6, 13.1, 13.0, 13.1, 13.3, 13.8, 14.3, 15.0, 15.8, 16.7, 17.7, 15.1, 15.0, 15.1, 15.3, 15.7, 16.2], [0, 0, 0, 0, 0, 0, 0, 0, 0, 0, 0, 0, 0, 0, 0, 0, 0, 0, 0, 0, 0, 0, 0, 0, 0, 0, 0, 0, 0, 0, 0, 0, 0, 1.5, 3.0, 4.5, 6.0, 7.5, 9.0, 10.5, 4.2, 3.4, 3.0, 3.4, 4.2, 5.4, 6.7, 8.1, 9.5, 10.9, 5.8, 5.2, 5.0, 5.2, 5.8, 6.7, 7.8, 9.0, 10.3, 11.6, 8.5, 8.1, 8.0, 8.1, 8.5, 9.2, 10.0, 11.0, 12.0, 13.2, 10.4, 10.1, 10.0, 10.1, 10.4, 11.0, 11.7, 12.5, 13.5, 14.5, 13.3, 13.1, 13.0, 13.1, 13.3, 13.8, 14.3, 15.0, 15.8, 16.7, 15.3, 15.1, 15.0, 15.1, 15.3, 15.7], [0, 0, 0, 0, 0, 0, 0, 0, 0, 0, 0, 0, 0, 0, 0, 0, 0, 0, 0, 0, 0, 0, 0, 0, 0, 0, 0, 0, 0, 0, 0, 0, 0, 0, 1.5, 3.0, 4.5, 6.0, 7.5, 9.0, 5.4, 4.2, 3.4, 3.0, 3.4, 4.2, 5.4, 6.7, 8.1, 9.5, 6.7, 5.8, 5.2, 5.0, 5.2, 5.8, 6.7, 7.8, 9.0, 10.3, 9.2, 8.5, 8.1, 8.0, 8.1, 8.5, 9.2, 10.0, 11.0, 12.0, 11.0, 10.4, 10.1, 10.0, 10.1, 10.4, 11.0, 11.7, 12.5, 13.5, 13.8, 13.3, 13.1, 13.0, 13.1, 13.3, 13.8, 14.3, 15.0, 15.8, 15.7, 15.3, 15.1, 15.0, 15.1, 15.3], [0, 0, 0, 0, 0, 0, 0, 0, 0, 0, 0, 0, 0, 0, 0, 0, 0, 0, 0, 0, 0, 0, 0, 0, 0, 0, 0, 0, 0, 0, 0, 0, 0, 0, 0, 1.5, 3.0, 4.5, 6.0, 7.5, 6.7, 5.4, 4.2, 3.4, 3.0, 3.4, 4.2, 5.4, 6.7, 8.1, 7.8, 6.7, 5.8, 5.2, 5.0, 5.2, 5.8, 6.7, 7.8, 9.0, 10.0, 9.2, 8.5, 8.1, 8.0, 8.1, 8.5, 9.2, 10.0, 11.0, 11.7, 11.0, 10.4, 10.1, 10.0, 10.1, 10.4, 11.0, 11.7, 12.5, 14.3, 13.8, 13.3, 13.1, 13.0, 13.1, 13.3, 13.8, 14.3, 15.0, 16.2, 15.7, 15.3, 15.1, 15.0, 15.1], [0, 0, 0, 0, 0, 0, 0, 0, 0, 0, 0, 0, 0, 0, 0, 0, 0, 0, 0, 0, 0, 0, 0, 0, 0, 0, 0, 0, 0, 0, 0, 0, 0, 0, 0, 0, 1.5, 3.0, 4.5, 6.0, 8.1, 6.7, 5.4, 4.2, 3.4, 3.0, 3.4, 4.2, 5.4, 6.7, 9.0, 7.8, 6.7, 5.8, 5.2, 5.0, 5.2, 5.8, 6.7, 7.8, 11.0, 10.0, 9.2, 8.5, 8.1, 8.0, 8.1, 8.5, 9.2, 10.0, 12.5, 11.7, 11.0, 10.4, 10.1, 10.0, 10.1, 10.4, 11.0, 11.7, 15.0, 14.3, 13.8, 13.3, 13.1, 13.0, 13.1, 13.3, 13.8, 14.3, 16.8, 16.2, 15.7, 15.3, 15.1, 15.0], [0, 0, 0, 0, 0, 0, 0, 0, 0, 0, 0, 0, 0, 0, 0, 0, 0, 0, 0, 0, 0, 0, 0, 0, 0, 0, 0, 0, 0, 0, 0, 0, 0, 0, 0, 0, 0, 1.5, 3.0, 4.5, 9.5, 8.1, 6.7, 5.4, 4.2, 3.4, 3.0, 3.4, 4.2, 5.4, 10.3, 9.0, 7.8, 6.7, 5.8, 5.2, 5.0, 5.2, 5.8, 6.7, 12.0, 11.0, 10.0, 9.2, 8.5, 8.1, 8.0, 8.1, 8.5, 9.2, 13.5, 12.5, 11.7, 11.0, 10.4, 10.1, 10.0, 10.1, 10.4, 11.0, 15.8, 15.0, 14.3, 13.8, 13.3, 13.1, 13.0, 13.1, 13.3, 13.8, 17.5, 16.8, 16.2, 15.7, 15.3, 15.1], [0, 0, 0, 0, 0, 0, 0, 0, 0, 0, 0, 0, 0, 0, 0, 0, 0, 0, 0, 0, 0, 0, 0, 0, 0, 0, 0, 0, 0, 0, 0, 0, 0, 0, 0, 0, 0, 0, 1.5, 3.0, 10.9, 9.5, 8.1, 6.7, 5.4, 4.2, 3.4, 3.0, 3.4, 4.2, 11.6, 10.3, 9.0, 7.8, 6.7, 5.8, 5.2, 5.0, 5.2, 5.8, 13.2, 12.0, 11.0, 10.0, 9.2, 8.5, 8.1, 8.0, 8.1, 8.5, 14.5, 13.5, 12.5, 11.7, 11.0, 10.4, 10.1, 10.0, 10.1, 10.4, 16.7, 15.8, 15.0, 14.3, 13.8, 13.3, 13.1, 13.0, 13.1, 13.3, 18.3, 17.5, 16.8, 16.2, 15.7, 15.3], [0, 0, 0, 0, 0, 0, 0, 0, 0, 0, 0, 0, 0, 0, 0, 0, 0, 0, 0, 0, 0, 0, 0, 0, 0, 0, 0, 0, 0, 0, 0, 0, 0, 0, 0, 0, 0, 0, 0, 1.5, 12.4, 10.9, 9.5, 8.1, 6.7, 5.4, 4.2, 3.4, 3.0, 3.4, 13.0, 11.6, 10.3, 9.0, 7.8, 6.7, 5.8, 5.2, 5.0, 5.2, 14.4, 13.2, 12.0, 11.0, 10.0, 9.2, 8.5, 8.1, 8.0, 8.1, 15.6, 14.5, 13.5, 12.5, 11.7, 11.0, 10.4, 10.1, 10.0, 10.1, 17.7, 16.7, 15.8, 15.0, 14.3, 13.8, 13.3, 13.1, 13.0, 13.1, 19.2, 18.3, 17.5, 16.8, 16.2, 15.7], [0, 0, 0, 0, 0, 0, 0, 0, 0, 0, 0, 0, 0, 0, 0, 0, 0, 0, 0, 0, 0, 0, 0, 0, 0, 0, 0, 0, 0, 0, 0, 0, 0, 0, 0, 0, 0, 0, 0, 0, 13.8, 12.4, 10.9, 9.5, 8.1, 6.7, 5.4, 4.2, 3.4, 3.0, 14.4, 13.0, 11.6, 10.3, 9.0, 7.8, 6.7, 5.8, 5.2, 5.0, 15.7, 14.4, 13.2, 12.0, 11.0, 10.0, 9.2, 8.5, 8.1, 8.0, 16.8, 15.6, 14.5, 13.5, 12.5, 11.7, 11.0, 10.4, 10.1, 10.0, 18.7, 17.7, 16.7, 15.8, 15.0, 14.3, 13.8, 13.3, 13.1, 13.0, 20.2, 19.2, 18.3, 17.5, 16.8, 16.2], [0, 0, 0, 0, 0, 0, 0, 0, 0, 0, 0, 0, 0, 0, 0, 0, 0, 0, 0, 0, 0, 0, 0, 0, 0, 0, 0, 0, 0, 0, 0, 0, 0, 0, 0, 0, 0, 0, 0, 0, 0, 1.5, 3.0, 4.5, 6.0, 7.5, 9.0, 10.5, 12.0, 13.5, 2.0, 2.5, 3.6, 4.9, 6.3, 7.8, 9.2, 10.7, 12.2, 13.6, 5.0, 5.2, 5.8, 6.7, 7.8, 9.0, 10.3, 11.6, 13.0, 14.4, 7.0, 7.2, 7.6, 8.3, 9.2, 10.3, 11.4, 12.6, 13.9, 15.2, 10.0, 10.1, 10.4, 11.0, 11.7, 12.5, 13.5, 14.5, 15.6, 16.8, 12.0, 12.1, 12.4, 12.8, 13.4, 14.2], [0, 0, 0, 0, 0, 0, 0, 0, 0, 0, 0, 0, 0, 0, 0, 0, 0, 0, 0, 0, 0, 0, 0, 0, 0, 0, 0, 0, 0, 0, 0, 0, 0, 0, 0, 0, 0, 0, 0, 0, 0, 0, 1.5, 3.0, 4.5, 6.0, 7.5, 9.0, 10.5, 12.0, 2.5, 2.0, 2.5, 3.6, 4.9, 6.3, 7.8, 9.2, 10.7, 12.2, 5.2, 5.0, 5.2, 5.8, 6.7, 7.8, 9.0, 10.3, 11.6, 13.0, 7.2, 7.0, 7.2, 7.6, 8.3, 9.2, 10.3, 11.4, 12.6, 13.9, 10.1, 10.0, 10.1, 10.4, 11.0, 11.7, 12.5, 13.5, 14.5, 15.6, 12.1, 12.0, 12.1, 12.4, 12.8, 13.4], [0, 0, 0, 0, 0, 0, 0, 0, 0, 0, 0, 0, 0, 0, 0, 0, 0, 0, 0, 0, 0, 0, 0, 0, 0, 0, 0, 0, 0, 0, 0, 0, 0, 0, 0, 0, 0, 0, 0, 0, 0, 0, 0, 1.5, 3.0, 4.5, 6.0, 7.5, 9.0, 10.5, 3.6, 2.5, 2.0, 2.5, 3.6, 4.9, 6.3, 7.8, 9.2, 10.7, 5.8, 5.2, 5.0, 5.2, 5.8, 6.7, 7.8, 9.0, 10.3, 11.6, 7.6, 7.2, 7.0, 7.2, 7.6, 8.3, 9.2, 10.3, 11.4, 12.6, 10.4, 10.1, 10.0, 10.1, 10.4, 11.0, 11.7, 12.5, 13.5, 14.5, 12.4, 12.1, 12.0, 12.1, 12.4, 12.8], [0, 0, 0, 0, 0, 0, 0, 0, 0, 0, 0, 0, 0, 0, 0, 0, 0, 0, 0, 0, 0, 0, 0, 0, 0, 0, 0, 0, 0, 0, 0, 0, 0, 0, 0, 0, 0, 0, 0, 0, 0, 0, 0, 0, 1.5, 3.0, 4.5, 6.0, 7.5, 9.0, 4.9, 3.6, 2.5, 2.0, 2.5, 3.6, 4.9, 6.3, 7.8, 9.2, 6.7, 5.8, 5.2, 5.0, 5.2, 5.8, 6.7, 7.8, 9.0, 10.3, 8.3, 7.6, 7.2, 7.0, 7.2, 7.6, 8.3, 9.2, 10.3, 11.4, 11.0, 10.4, 10.1, 10.0, 10.1, 10.4, 11.0, 11.7, 12.5, 13.5, 12.8, 12.4, 12.1, 12.0, 12.1, 12.4], [0, 0, 0, 0, 0, 0, 0, 0, 0, 0, 0, 0, 0, 0, 0, 0, 0, 0, 0, 0, 0, 0, 0, 0, 0, 0, 0, 0, 0, 0, 0, 0, 0, 0, 0, 0, 0, 0, 0, 0, 0, 0, 0, 0, 0, 1.5, 3.0, 4.5, 6.0, 7.5, 6.3, 4.9, 3.6, 2.5, 2.0, 2.5, 3.6, 4.9, 6.3, 7.8, 7.8, 6.7, 5.8, 5.2, 5.0, 5.2, 5.8, 6.7, 7.8, 9.0, 9.2, 8.3, 7.6, 7.2, 7.0, 7.2, 7.6, 8.3, 9.2, 10.3, 11.7, 11.0, 10.4, 10.1, 10.0, 10.1, 10.4, 11.0, 11.7, 12.5, 13.4, 12.8, 12.4, 12.1, 12.0, 12.1], [0, 0, 0, 0, 0, 0, 0, 0, 0, 0, 0, 0, 0, 0, 0, 0, 0, 0, 0, 0, 0, 0, 0, 0, 0, 0, 0, 0, 0, 0, 0, 0, 0, 0, 0, 0, 0, 0, 0, 0, 0, 0, 0, 0, 0, 0, 1.5, 3.0, 4.5, 6.0, 7.8, 6.3, 4.9, 3.6, 2.5, 2.0, 2.5, 3.6, 4.9, 6.3, 9.0, 7.8, 6.7, 5.8, 5.2, 5.0, 5.2, 5.8, 6.7, 7.8, 10.3, 9.2, 8.3, 7.6, 7.2, 7.0, 7.2, 7.6, 8.3, 9.2, 12.5, 11.7, 11.0, 10.4, 10.1, 10.0, 10.1, 10.4, 11.0, 11.7, 14.2, 13.4, 12.8, 12.4, 12.1, 12.0], [0, 0, 0, 0, 0, 0, 0, 0, 0, 0, 0, 0, 0, 0, 0, 0, 0, 0, 0, 0, 0, 0, 0, 0, 0, 0, 0, 0, 0, 0, 0, 0, 0, 0, 0, 0, 0, 0, 0, 0, 0, 0, 0, 0, 0, 0, 0, 1.5, 3.0, 4.5, 9.2, 7.8, 6.3, 4.9, 3.6, 2.5, 2.0, 2.5, 3.6, 4.9, 10.3, 9.0, 7.8, 6.7, 5.8, 5.2, 5.0, 5.2, 5.8, 6.7, 11.4, 10.3, 9.2, 8.3, 7.6, 7.2, 7.0, 7.2, 7.6, 8.3, 13.5, 12.5, 11.7, 11.0, 10.4, 10.1, 10.0, 10.1, 10.4, 11.0, 15.0, 14.2, 13.4, 12.8, 12.4, 12.1], [0, 0, 0, 0, 0, 0, 0, 0, 0, 0, 0, 0, 0, 0, 0, 0, 0, 0, 0, 0, 0, 0, 0, 0, 0, 0, 0, 0, 0, 0, 0, 0, 0, 0, 0, 0, 0, 0, 0, 0, 0, 0, 0, 0, 0, 0, 0, 0, 1.5, 3.0, 10.7, 9.2, 7.8, 6.3, 4.9, 3.6, 2.5, 2.0, 2.5, 3.6, 11.6, 10.3, 9.0, 7.8, 6.7, 5.8, 5.2, 5.0, 5.2, 5.8, 12.6, 11.4, 10.3, 9.2, 8.3, 7.6, 7.2, 7.0, 7.2, 7.6, 14.5, 13.5, 12.5, 11.7, 11.0, 10.4, 10.1, 10.0, 10.1, 10.4, 15.9, 15.0, 14.2, 13.4, 12.8, 12.4], [0, 0, 0, 0, 0, 0, 0, 0, 0, 0, 0, 0, 0, 0, 0, 0, 0, 0, 0, 0, 0, 0, 0, 0, 0, 0, 0, 0, 0, 0, 0, 0, 0, 0, 0, 0, 0, 0, 0, 0, 0, 0, 0, 0, 0, 0, 0, 0, 0, 1.5, 12.2, 10.7, 9.2, 7.8, 6.3, 4.9, 3.6, 2.5, 2.0, 2.5, 13.0, 11.6, 10.3, 9.0, 7.8, 6.7, 5.8, 5.2, 5.0, 5.2, 13.9, 12.6, 11.4, 10.3, 9.2, 8.3, 7.6, 7.2, 7.0, 7.2, 15.6, 14.5, 13.5, 12.5, 11.7, 11.0, 10.4, 10.1, 10.0, 10.1, 17.0, 15.9, 15.0, 14.2, 13.4, 12.8], [0, 0, 0, 0, 0, 0, 0, 0, 0, 0, 0, 0, 0, 0, 0, 0, 0, 0, 0, 0, 0, 0, 0, 0, 0, 0, 0, 0, 0, 0, 0, 0, 0, 0, 0, 0, 0, 0, 0, 0, 0, 0, 0, 0, 0, 0, 0, 0, 0, 0, 13.6, 12.2, 10.7, 9.2, 7.8, 6.3, 4.9, 3.6, 2.5, 2.0, 14.4, 13.0, 11.6, 10.3, 9.0, 7.8, 6.7, 5.8, 5.2, 5.0, 15.2, 13.9, 12.6, 11.4, 10.3, 9.2, 8.3, 7.6, 7.2, 7.0, 16.8, 15.6, 14.5, 13.5, 12.5, 11.7, 11.0, 10.4, 10.1, 10.0, 18.1, 17.0, 15.9, 15.0, 14.2, 13.4], [0, 0, 0, 0, 0, 0, 0, 0, 0, 0, 0, 0, 0, 0, 0, 0, 0, 0, 0, 0, 0, 0, 0, 0, 0, 0, 0, 0, 0, 0, 0, 0, 0, 0, 0, 0, 0, 0, 0, 0, 0, 0, 0, 0, 0, 0, 0, 0, 0, 0, 0, 1.5, 3.0, 4.5, 6.0, 7.5, 9.0, 10.5, 12.0, 13.5, 3.0, 3.4, 4.2, 5.4, 6.7, 8.1, 9.5, 10.9, 12.4, 13.8, 5.0, 5.2, 5.8, 6.7, 7.8, 9.0, 10.3, 11.6, 13.0, 14.4, 8.0, 8.1, 8.5, 9.2, 10.0, 11.0, 12.0, 13.2, 14.4, 15.7, 10.0, 10.1, 10.4, 11.0, 11.7, 12.5], [0, 0, 0, 0, 0, 0, 0, 0, 0, 0, 0, 0, 0, 0, 0, 0, 0, 0, 0, 0, 0, 0, 0, 0, 0, 0, 0, 0, 0, 0, 0, 0, 0, 0, 0, 0, 0, 0, 0, 0, 0, 0, 0, 0, 0, 0, 0, 0, 0, 0, 0, 0, 1.5, 3.0, 4.5, 6.0, 7.5, 9.0, 10.5, 12.0, 3.4, 3.0, 3.4, 4.2, 5.4, 6.7, 8.1, 9.5, 10.9, 12.4, 5.2, 5.0, 5.2, 5.8, 6.7, 7.8, 9.0, 10.3, 11.6, 13.0, 8.1, 8.0, 8.1, 8.5, 9.2, 10.0, 11.0, 12.0, 13.2, 14.4, 10.1, 10.0, 10.1, 10.4, 11.0, 11.7], [0, 0, 0, 0, 0, 0, 0, 0, 0, 0, 0, 0, 0, 0, 0, 0, 0, 0, 0, 0, 0, 0, 0, 0, 0, 0, 0, 0, 0, 0, 0, 0, 0, 0, 0, 0, 0, 0, 0, 0, 0, 0, 0, 0, 0, 0, 0, 0, 0, 0, 0, 0, 0, 1.5, 3.0, 4.5, 6.0, 7.5, 9.0, 10.5, 4.2, 3.4, 3.0, 3.4, 4.2, 5.4, 6.7, 8.1, 9.5, 10.9, 5.8, 5.2, 5.0, 5.2, 5.8, 6.7, 7.8, 9.0, 10.3, 11.6, 8.5, 8.1, 8.0, 8.1, 8.5, 9.2, 10.0, 11.0, 12.0, 13.2, 10.4, 10.1, 10.0, 10.1, 10.4, 11.0], [0, 0, 0, 0, 0, 0, 0, 0, 0, 0, 0, 0, 0, 0, 0, 0, 0, 0, 0, 0, 0, 0, 0, 0, 0, 0, 0, 0, 0, 0, 0, 0, 0, 0, 0, 0, 0, 0, 0, 0, 0, 0, 0, 0, 0, 0, 0, 0, 0, 0, 0, 0, 0, 0, 1.5, 3.0, 4.5, 6.0, 7.5, 9.0, 5.4, 4.2, 3.4, 3.0, 3.4, 4.2, 5.4, 6.7, 8.1, 9.5, 6.7, 5.8, 5.2, 5.0, 5.2, 5.8, 6.7, 7.8, 9.0, 10.3, 9.2, 8.5, 8.1, 8.0, 8.1, 8.5, 9.2, 10.0, 11.0, 12.0, 11.0, 10.4, 10.1, 10.0, 10.1, 10.4], [0, 0, 0, 0, 0, 0, 0, 0, 0, 0, 0, 0, 0, 0, 0, 0, 0, 0, 0, 0, 0, 0, 0, 0, 0, 0, 0, 0, 0, 0, 0, 0, 0, 0, 0, 0, 0, 0, 0, 0, 0, 0, 0, 0, 0, 0, 0, 0, 0, 0, 0, 0, 0, 0, 0, 1.5, 3.0, 4.5, 6.0, 7.5, 6.7, 5.4, 4.2, 3.4, 3.0, 3.4, 4.2, 5.4, 6.7, 8.1, 7.8, 6.7, 5.8, 5.2, 5.0, 5.2, 5.8, 6.7, 7.8, 9.0, 10.0, 9.2, 8.5, 8.1, 8.0, 8.1, 8.5, 9.2, 10.0, 11.0, 11.7, 11.0, 10.4, 10.1, 10.0, 10.1], [0, 0, 0, 0, 0, 0, 0, 0, 0, 0, 0, 0, 0, 0, 0, 0, 0, 0, 0, 0, 0, 0, 0, 0, 0, 0, 0, 0, 0, 0, 0, 0, 0, 0, 0, 0, 0, 0, 0, 0, 0, 0, 0, 0, 0, 0, 0, 0, 0, 0, 0, 0, 0, 0, 0, 0, 1.5, 3.0, 4.5, 6.0, 8.1, 6.7, 5.4, 4.2, 3.4, 3.0, 3.4, 4.2, 5.4, 6.7, 9.0, 7.8, 6.7, 5.8, 5.2, 5.0, 5.2, 5.8, 6.7, 7.8, 11.0, 10.0, 9.2, 8.5, 8.1, 8.0, 8.1, 8.5, 9.2, 10.0, 12.5, 11.7, 11.0, 10.4, 10.1, 10.0], [0, 0, 0, 0, 0, 0, 0, 0, 0, 0, 0, 0, 0, 0, 0, 0, 0, 0, 0, 0, 0, 0, 0, 0, 0, 0, 0, 0, 0, 0, 0, 0, 0, 0, 0, 0, 0, 0, 0, 0, 0, 0, 0, 0, 0, 0, 0, 0, 0, 0, 0, 0, 0, 0, 0, 0, 0, 1.5, 3.0, 4.5, 9.5, 8.1, 6.7, 5.4, 4.2, 3.4, 3.0, 3.4, 4.2, 5.4, 10.3, 9.0, 7.8, 6.7, 5.8, 5.2, 5.0, 5.2, 5.8, 6.7, 12.0, 11.0, 10.0, 9.2, 8.5, 8.1, 8.0, 8.1, 8.5, 9.2, 13.5, 12.5, 11.7, 11.0, 10.4, 10.1], [0, 0, 0, 0, 0, 0, 0, 0, 0, 0, 0, 0, 0, 0, 0, 0, 0, 0, 0, 0, 0, 0, 0, 0, 0, 0, 0, 0, 0, 0, 0, 0, 0, 0, 0, 0, 0, 0, 0, 0, 0, 0, 0, 0, 0, 0, 0, 0, 0, 0, 0, 0, 0, 0, 0, 0, 0, 0, 1.5, 3.0, 10.9, 9.5, 8.1, 6.7, 5.4, 4.2, 3.4, 3.0, 3.4, 4.2, 11.6, 10.3, 9.0, 7.8, 6.7, 5.8, 5.2, 5.0, 5.2, 5.8, 13.2, 12.0, 11.0, 10.0, 9.2, 8.5, 8.1, 8.0, 8.1, 8.5, 14.5, 13.5, 12.5, 11.7, 11.0, 10.4], [0, 0, 0, 0, 0, 0, 0, 0, 0, 0, 0, 0, 0, 0, 0, 0, 0, 0, 0, 0, 0, 0, 0, 0, 0, 0, 0, 0, 0, 0, 0, 0, 0, 0, 0, 0, 0, 0, 0, 0, 0, 0, 0, 0, 0, 0, 0, 0, 0, 0, 0, 0, 0, 0, 0, 0, 0, 0, 0, 1.5, 12.4, 10.9, 9.5, 8.1, 6.7, 5.4, 4.2, 3.4, 3.0, 3.4, 13.0, 11.6, 10.3, 9.0, 7.8, 6.7, 5.8, 5.2, 5.0, 5.2, 14.4, 13.2, 12.0, 11.0, 10.0, 9.2, 8.5, 8.1, 8.0, 8.1, 15.6, 14.5, 13.5, 12.5, 11.7, 11.0], [0, 0, 0, 0, 0, 0, 0, 0, 0, 0, 0, 0, 0, 0, 0, 0, 0, 0, 0, 0, 0, 0, 0, 0, 0, 0, 0, 0, 0, 0, 0, 0, 0, 0, 0, 0, 0, 0, 0, 0, 0, 0, 0, 0, 0, 0, 0, 0, 0, 0, 0, 0, 0, 0, 0, 0, 0, 0, 0, 0, 13.8, 12.4, 10.9, 9.5, 8.1, 6.7, 5.4, 4.2, 3.4, 3.0, 14.4, 13.0, 11.6, 10.3, 9.0, 7.8, 6.7, 5.8, 5.2, 5.0, 15.7, 14.4, 13.2, 12.0, 11.0, 10.0, 9.2, 8.5, 8.1, 8.0, 16.8, 15.6, 14.5, 13.5, 12.5, 11.7], [0, 0, 0, 0, 0, 0, 0, 0, 0, 0, 0, 0, 0, 0, 0, 0, 0, 0, 0, 0, 0, 0, 0, 0, 0, 0, 0, 0, 0, 0, 0, 0, 0, 0, 0, 0, 0, 0, 0, 0, 0, 0, 0, 0, 0, 0, 0, 0, 0, 0, 0, 0, 0, 0, 0, 0, 0, 0, 0, 0, 0, 1.5, 3.0, 4.5, 6.0, 7.5, 9.0, 10.5, 12.0, 13.5, 2.0, 2.5, 3.6, 4.9, 6.3, 7.8, 9.2, 10.7, 12.2, 13.6, 5.0, 5.2, 5.8, 6.7, 7.8, 9.0, 10.3, 11.6, 13.0, 14.4, 7.0, 7.2, 7.6, 8.3, 9.2, 10.3], [0, 0, 0, 0, 0, 0, 0, 0, 0, 0, 0, 0, 0, 0, 0, 0, 0, 0, 0, 0, 0, 0, 0, 0, 0, 0, 0, 0, 0, 0, 0, 0, 0, 0, 0, 0, 0, 0, 0, 0, 0, 0, 0, 0, 0, 0, 0, 0, 0, 0, 0, 0, 0, 0, 0, 0, 0, 0, 0, 0, 0, 0, 1.5, 3.0, 4.5, 6.0, 7.5, 9.0, 10.5, 12.0, 2.5, 2.0, 2.5, 3.6, 4.9, 6.3, 7.8, 9.2, 10.7, 12.2, 5.2, 5.0, 5.2, 5.8, 6.7, 7.8, 9.0, 10.3, 11.6, 13.0, 7.2, 7.0, 7.2, 7.6, 8.3, 9.2], [0, 0, 0, 0, 0, 0, 0, 0, 0, 0, 0, 0, 0, 0, 0, 0, 0, 0, 0, 0, 0, 0, 0, 0, 0, 0, 0, 0, 0, 0, 0, 0, 0, 0, 0, 0, 0, 0, 0, 0, 0, 0, 0, 0, 0, 0, 0, 0, 0, 0, 0, 0, 0, 0, 0, 0, 0, 0, 0, 0, 0, 0, 0, 1.5, 3.0, 4.5, 6.0, 7.5, 9.0, 10.5, 3.6, 2.5, 2.0, 2.5, 3.6, 4.9, 6.3, 7.8, 9.2, 10.7, 5.8, 5.2, 5.0, 5.2, 5.8, 6.7, 7.8, 9.0, 10.3, 11.6, 7.6, 7.2, 7.0, 7.2, 7.6, 8.3], [0, 0, 0, 0, 0, 0, 0, 0, 0, 0, 0, 0, 0, 0, 0, 0, 0, 0, 0, 0, 0, 0, 0, 0, 0, 0, 0, 0, 0, 0, 0, 0, 0, 0, 0, 0, 0, 0, 0, 0, 0, 0, 0, 0, 0, 0, 0, 0, 0, 0, 0, 0, 0, 0, 0, 0, 0, 0, 0, 0, 0, 0, 0, 0, 1.5, 3.0, 4.5, 6.0, 7.5, 9.0, 4.9, 3.6, 2.5, 2.0, 2.5, 3.6, 4.9, 6.3, 7.8, 9.2, 6.7, 5.8, 5.2, 5.0, 5.2, 5.8, 6.7, 7.8, 9.0, 10.3, 8.3, 7.6, 7.2, 7.0, 7.2, 7.6], [0, 0, 0, 0, 0, 0, 0, 0, 0, 0, 0, 0, 0, 0, 0, 0, 0, 0, 0, 0, 0, 0, 0, 0, 0, 0, 0, 0, 0, 0, 0, 0, 0, 0, 0, 0, 0, 0, 0, 0, 0, 0, 0, 0, 0, 0, 0, 0, 0, 0, 0, 0, 0, 0, 0, 0, 0, 0, 0, 0, 0, 0, 0, 0, 0, 1.5, 3.0, 4.5, 6.0, 7.5, 6.3, 4.9, 3.6, 2.5, 2.0, 2.5, 3.6, 4.9, 6.3, 7.8, 7.8, 6.7, 5.8, 5.2, 5.0, 5.2, 5.8, 6.7, 7.8, 9.0, 9.2, 8.3, 7.6, 7.2, 7.0, 7.2], [0, 0, 0, 0, 0, 0, 0, 0, 0, 0, 0, 0, 0, 0, 0, 0, 0, 0, 0, 0, 0, 0, 0, 0, 0, 0, 0, 0, 0, 0, 0, 0, 0, 0, 0, 0, 0, 0, 0, 0, 0, 0, 0, 0, 0, 0, 0, 0, 0, 0, 0, 0, 0, 0, 0, 0, 0, 0, 0, 0, 0, 0, 0, 0, 0, 0, 1.5, 3.0, 4.5, 6.0, 7.8, 6.3, 4.9, 3.6, 2.5, 2.0, 2.5, 3.6, 4.9, 6.3, 9.0, 7.8, 6.7, 5.8, 5.2, 5.0, 5.2, 5.8, 6.7, 7.8, 10.3, 9.2, 8.3, 7.6, 7.2, 7.0], [0, 0, 0, 0, 0, 0, 0, 0, 0, 0, 0, 0, 0, 0, 0, 0, 0, 0, 0, 0, 0, 0, 0, 0, 0, 0, 0, 0, 0, 0, 0, 0, 0, 0, 0, 0, 0, 0, 0, 0, 0, 0, 0, 0, 0, 0, 0, 0, 0, 0, 0, 0, 0, 0, 0, 0, 0, 0, 0, 0, 0, 0, 0, 0, 0, 0, 0, 1.5, 3.0, 4.5, 9.2, 7.8, 6.3, 4.9, 3.6, 2.5, 2.0, 2.5, 3.6, 4.9, 10.3, 9.0, 7.8, 6.7, 5.8, 5.2, 5.0, 5.2, 5.8, 6.7, 11.4, 10.3, 9.2, 8.3, 7.6, 7.2], [0, 0, 0, 0, 0, 0, 0, 0, 0, 0, 0, 0, 0, 0, 0, 0, 0, 0, 0, 0, 0, 0, 0, 0, 0, 0, 0, 0, 0, 0, 0, 0, 0, 0, 0, 0, 0, 0, 0, 0, 0, 0, 0, 0, 0, 0, 0, 0, 0, 0, 0, 0, 0, 0, 0, 0, 0, 0, 0, 0, 0, 0, 0, 0, 0, 0, 0, 0, 1.5, 3.0, 10.7, 9.2, 7.8, 6.3, 4.9, 3.6, 2.5, 2.0, 2.5, 3.6, 11.6, 10.3, 9.0, 7.8, 6.7, 5.8, 5.2, 5.0, 5.2, 5.8, 12.6, 11.4, 10.3, 9.2, 8.3, 7.6], [0, 0, 0, 0, 0, 0, 0, 0, 0, 0, 0, 0, 0, 0, 0, 0, 0, 0, 0, 0, 0, 0, 0, 0, 0, 0, 0, 0, 0, 0, 0, 0, 0, 0, 0, 0, 0, 0, 0, 0, 0, 0, 0, 0, 0, 0, 0, 0, 0, 0, 0, 0, 0, 0, 0, 0, 0, 0, 0, 0, 0, 0, 0, 0, 0, 0, 0, 0, 0, 1.5, 12.2, 10.7, 9.2, 7.8, 6.3, 4.9, 3.6, 2.5, 2.0, 2.5, 13.0, 11.6, 10.3, 9.0, 7.8, 6.7, 5.8, 5.2, 5.0, 5.2, 13.9, 12.6, 11.4, 10.3, 9.2, 8.3], [0, 0, 0, 0, 0, 0, 0, 0, 0, 0, 0, 0, 0, 0, 0, 0, 0, 0, 0, 0, 0, 0, 0, 0, 0, 0, 0, 0, 0, 0, 0, 0, 0, 0, 0, 0, 0, 0, 0, 0, 0, 0, 0, 0, 0, 0, 0, 0, 0, 0, 0, 0, 0, 0, 0, 0, 0, 0, 0, 0, 0, 0, 0, 0, 0, 0, 0, 0, 0, 0, 13.6, 12.2, 10.7, 9.2, 7.8, 6.3, 4.9, 3.6, 2.5, 2.0, 14.4, 13.0, 11.6, 10.3, 9.0, 7.8, 6.7, 5.8, 5.2, 5.0, 15.2, 13.9, 12.6, 11.4, 10.3, 9.2], [0, 0, 0, 0, 0, 0, 0, 0, 0, 0, 0, 0, 0, 0, 0, 0, 0, 0, 0, 0, 0, 0, 0, 0, 0, 0, 0, 0, 0, 0, 0, 0, 0, 0, 0, 0, 0, 0, 0, 0, 0, 0, 0, 0, 0, 0, 0, 0, 0, 0, 0, 0, 0, 0, 0, 0, 0, 0, 0, 0, 0, 0, 0, 0, 0, 0, 0, 0, 0, 0, 0, 1.5, 3.0, 4.5, 6.0, 7.5, 9.0, 10.5, 12.0, 13.5, 3.0, 3.4, 4.2, 5.4, 6.7, 8.1, 9.5, 10.9, 12.4, 13.8, 5.0, 5.2, 5.8, 6.7, 7.8, 9.0], [0, 0, 0, 0, 0, 0, 0, 0, 0, 0, 0, 0, 0, 0, 0, 0, 0, 0, 0, 0, 0, 0, 0, 0, 0, 0, 0, 0, 0, 0, 0, 0, 0, 0, 0, 0, 0, 0, 0, 0, 0, 0, 0, 0, 0, 0, 0, 0, 0, 0, 0, 0, 0, 0, 0, 0, 0, 0, 0, 0, 0, 0, 0, 0, 0, 0, 0, 0, 0, 0, 0, 0, 1.5, 3.0, 4.5, 6.0, 7.5, 9.0, 10.5, 12.0, 3.4, 3.0, 3.4, 4.2, 5.4, 6.7, 8.1, 9.5, 10.9, 12.4, 5.2, 5.0, 5.2, 5.8, 6.7, 7.8], [0, 0, 0, 0, 0, 0, 0, 0, 0, 0, 0, 0, 0, 0, 0, 0, 0, 0, 0, 0, 0, 0, 0, 0, 0, 0, 0, 0, 0, 0, 0, 0, 0, 0, 0, 0, 0, 0, 0, 0, 0, 0, 0, 0, 0, 0, 0, 0, 0, 0, 0, 0, 0, 0, 0, 0, 0, 0, 0, 0, 0, 0, 0, 0, 0, 0, 0, 0, 0, 0, 0, 0, 0, 1.5, 3.0, 4.5, 6.0, 7.5, 9.0, 10.5, 4.2, 3.4, 3.0, 3.4, 4.2, 5.4, 6.7, 8.1, 9.5, 10.9, 5.8, 5.2, 5.0, 5.2, 5.8, 6.7], [0, 0, 0, 0, 0, 0, 0, 0, 0, 0, 0, 0, 0, 0, 0, 0, 0, 0, 0, 0, 0, 0, 0, 0, 0, 0, 0, 0, 0, 0, 0, 0, 0, 0, 0, 0, 0, 0, 0, 0, 0, 0, 0, 0, 0, 0, 0, 0, 0, 0, 0, 0, 0, 0, 0, 0, 0, 0, 0, 0, 0, 0, 0, 0, 0, 0, 0, 0, 0, 0, 0, 0, 0, 0, 1.5, 3.0, 4.5, 6.0, 7.5, 9.0, 5.4, 4.2, 3.4, 3.0, 3.4, 4.2, 5.4, 6.7, 8.1, 9.5, 6.7, 5.8, 5.2, 5.0, 5.2, 5.8], [0, 0, 0, 0, 0, 0, 0, 0, 0, 0, 0, 0, 0, 0, 0, 0, 0, 0, 0, 0, 0, 0, 0, 0, 0, 0, 0, 0, 0, 0, 0, 0, 0, 0, 0, 0, 0, 0, 0, 0, 0, 0, 0, 0, 0, 0, 0, 0, 0, 0, 0, 0, 0, 0, 0, 0, 0, 0, 0, 0, 0, 0, 0, 0, 0, 0, 0, 0, 0, 0, 0, 0, 0, 0, 0, 1.5, 3.0, 4.5, 6.0, 7.5, 6.7, 5.4, 4.2, 3.4, 3.0, 3.4, 4.2, 5.4, 6.7, 8.1, 7.8, 6.7, 5.8, 5.2, 5.0, 5.2], [0, 0, 0, 0, 0, 0, 0, 0, 0, 0, 0, 0, 0, 0, 0, 0, 0, 0, 0, 0, 0, 0, 0, 0, 0, 0, 0, 0, 0, 0, 0, 0, 0, 0, 0, 0, 0, 0, 0, 0, 0, 0, 0, 0, 0, 0, 0, 0, 0, 0, 0, 0, 0, 0, 0, 0, 0, 0, 0, 0, 0, 0, 0, 0, 0, 0, 0, 0, 0, 0, 0, 0, 0, 0, 0, 0, 1.5, 3.0, 4.5, 6.0, 8.1, 6.7, 5.4, 4.2, 3.4, 3.0, 3.4, 4.2, 5.4, 6.7, 9.0, 7.8, 6.7, 5.8, 5.2, 5.0], [0, 0, 0, 0, 0, 0, 0, 0, 0, 0, 0, 0, 0, 0, 0, 0, 0, 0, 0, 0, 0, 0, 0, 0, 0, 0, 0, 0, 0, 0, 0, 0, 0, 0, 0, 0, 0, 0, 0, 0, 0, 0, 0, 0, 0, 0, 0, 0, 0, 0, 0, 0, 0, 0, 0, 0, 0, 0, 0, 0, 0, 0, 0, 0, 0, 0, 0, 0, 0, 0, 0, 0, 0, 0, 0, 0, 0, 1.5, 3.0, 4.5, 9.5, 8.1, 6.7, 5.4, 4.2, 3.4, 3.0, 3.4, 4.2, 5.4, 10.3, 9.0, 7.8, 6.7, 5.8, 5.2], [0, 0, 0, 0, 0, 0, 0, 0, 0, 0, 0, 0, 0, 0, 0, 0, 0, 0, 0, 0, 0, 0, 0, 0, 0, 0, 0, 0, 0, 0, 0, 0, 0, 0, 0, 0, 0, 0, 0, 0, 0, 0, 0, 0, 0, 0, 0, 0, 0, 0, 0, 0, 0, 0, 0, 0, 0, 0, 0, 0, 0, 0, 0, 0, 0, 0, 0, 0, 0, 0, 0, 0, 0, 0, 0, 0, 0, 0, 1.5, 3.0, 10.9, 9.5, 8.1, 6.7, 5.4, 4.2, 3.4, 3.0, 3.4, 4.2, 11.6, 10.3, 9.0, 7.8, 6.7, 5.8], [0, 0, 0, 0, 0, 0, 0, 0, 0, 0, 0, 0, 0, 0, 0, 0, 0, 0, 0, 0, 0, 0, 0, 0, 0, 0, 0, 0, 0, 0, 0, 0, 0, 0, 0, 0, 0, 0, 0, 0, 0, 0, 0, 0, 0, 0, 0, 0, 0, 0, 0, 0, 0, 0, 0, 0, 0, 0, 0, 0, 0, 0, 0, 0, 0, 0, 0, 0, 0, 0, 0, 0, 0, 0, 0, 0, 0, 0, 0, 1.5, 12.4, 10.9, 9.5, 8.1, 6.7, 5.4, 4.2, 3.4, 3.0, 3.4, 13.0, 11.6, 10.3, 9.0, 7.8, 6.7], [0, 0, 0, 0, 0, 0, 0, 0, 0, 0, 0, 0, 0, 0, 0, 0, 0, 0, 0, 0, 0, 0, 0, 0, 0, 0, 0, 0, 0, 0, 0, 0, 0, 0, 0, 0, 0, 0, 0, 0, 0, 0, 0, 0, 0, 0, 0, 0, 0, 0, 0, 0, 0, 0, 0, 0, 0, 0, 0, 0, 0, 0, 0, 0, 0, 0, 0, 0, 0, 0, 0, 0, 0, 0, 0, 0, 0, 0, 0, 0, 13.8, 12.4, 10.9, 9.5, 8.1, 6.7, 5.4, 4.2, 3.4, 3.0, 14.4, 13.0, 11.6, 10.3, 9.0, 7.8], [0, 0, 0, 0, 0, 0, 0, 0, 0, 0, 0, 0, 0, 0, 0, 0, 0, 0, 0, 0, 0, 0, 0, 0, 0, 0, 0, 0, 0, 0, 0, 0, 0, 0, 0, 0, 0, 0, 0, 0, 0, 0, 0, 0, 0, 0, 0, 0, 0, 0, 0, 0, 0, 0, 0, 0, 0, 0, 0, 0, 0, 0, 0, 0, 0, 0, 0, 0, 0, 0, 0, 0, 0, 0, 0, 0, 0, 0, 0, 0, 0, 1.5, 3.0, 4.5, 6.0, 7.5, 9.0, 10.5, 12.0, 13.5, 2.0, 2.5, 3.6, 4.9, 6.3, 7.8], [0, 0, 0, 0, 0, 0, 0, 0, 0, 0, 0, 0, 0, 0, 0, 0, 0, 0, 0, 0, 0, 0, 0, 0, 0, 0, 0, 0, 0, 0, 0, 0, 0, 0, 0, 0, 0, 0, 0, 0, 0, 0, 0, 0, 0, 0, 0, 0, 0, 0, 0, 0, 0, 0, 0, 0, 0, 0, 0, 0, 0, 0, 0, 0, 0, 0, 0, 0, 0, 0, 0, 0, 0, 0, 0, 0, 0, 0, 0, 0, 0, 0, 1.5, 3.0, 4.5, 6.0, 7.5, 9.0, 10.5, 12.0, 2.5, 2.0, 2.5, 3.6, 4.9, 6.3], [0, 0, 0, 0, 0, 0, 0, 0, 0, 0, 0, 0, 0, 0, 0, 0, 0, 0, 0, 0, 0, 0, 0, 0, 0, 0, 0, 0, 0, 0, 0, 0, 0, 0, 0, 0, 0, 0, 0, 0, 0, 0, 0, 0, 0, 0, 0, 0, 0, 0, 0, 0, 0, 0, 0, 0, 0, 0, 0, 0, 0, 0, 0, 0, 0, 0, 0, 0, 0, 0, 0, 0, 0, 0, 0, 0, 0, 0, 0, 0, 0, 0, 0, 1.5, 3.0, 4.5, 6.0, 7.5, 9.0, 10.5, 3.6, 2.5, 2.0, 2.5, 3.6, 4.9], [0, 0, 0, 0, 0, 0, 0, 0, 0, 0, 0, 0, 0, 0, 0, 0, 0, 0, 0, 0, 0, 0, 0, 0, 0, 0, 0, 0, 0, 0, 0, 0, 0, 0, 0, 0, 0, 0, 0, 0, 0, 0, 0, 0, 0, 0, 0, 0, 0, 0, 0, 0, 0, 0, 0, 0, 0, 0, 0, 0, 0, 0, 0, 0, 0, 0, 0, 0, 0, 0, 0, 0, 0, 0, 0, 0, 0, 0, 0, 0, 0, 0, 0, 0, 1.5, 3.0, 4.5, 6.0, 7.5, 9.0, 4.9, 3.6, 2.5, 2.0, 2.5, 3.6], [0, 0, 0, 0, 0, 0, 0, 0, 0, 0, 0, 0, 0, 0, 0, 0, 0, 0, 0, 0, 0, 0, 0, 0, 0, 0, 0, 0, 0, 0, 0, 0, 0, 0, 0, 0, 0, 0, 0, 0, 0, 0, 0, 0, 0, 0, 0, 0, 0, 0, 0, 0, 0, 0, 0, 0, 0, 0, 0, 0, 0, 0, 0, 0, 0, 0, 0, 0, 0, 0, 0, 0, 0, 0, 0, 0, 0, 0, 0, 0, 0, 0, 0, 0, 0, 1.5, 3.0, 4.5, 6.0, 7.5, 6.3, 4.9, 3.6, 2.5, 2.0, 2.5], [0, 0, 0, 0, 0, 0, 0, 0, 0, 0, 0, 0, 0, 0, 0, 0, 0, 0, 0, 0, 0, 0, 0, 0, 0, 0, 0, 0, 0, 0, 0, 0, 0, 0, 0, 0, 0, 0, 0, 0, 0, 0, 0, 0, 0, 0, 0, 0, 0, 0, 0, 0, 0, 0, 0, 0, 0, 0, 0, 0, 0, 0, 0, 0, 0, 0, 0, 0, 0, 0, 0, 0, 0, 0, 0, 0, 0, 0, 0, 0, 0, 0, 0, 0, 0, 0, 1.5, 3.0, 4.5, 6.0, 7.8, 6.3, 4.9, 3.6, 2.5, 2.0], [0, 0, 0, 0, 0, 0, 0, 0, 0, 0, 0, 0, 0, 0, 0, 0, 0, 0, 0, 0, 0, 0, 0, 0, 0, 0, 0, 0, 0, 0, 0, 0, 0, 0, 0, 0, 0, 0, 0, 0, 0, 0, 0, 0, 0, 0, 0, 0, 0, 0, 0, 0, 0, 0, 0, 0, 0, 0, 0, 0, 0, 0, 0, 0, 0, 0, 0, 0, 0, 0, 0, 0, 0, 0, 0, 0, 0, 0, 0, 0, 0, 0, 0, 0, 0, 0, 0, 1.5, 3.0, 4.5, 9.2, 7.8, 6.3, 4.9, 3.6, 2.5], [0, 0, 0, 0, 0, 0, 0, 0, 0, 0, 0, 0, 0, 0, 0, 0, 0, 0, 0, 0, 0, 0, 0, 0, 0, 0, 0, 0, 0, 0, 0, 0, 0, 0, 0, 0, 0, 0, 0, 0, 0, 0, 0, 0, 0, 0, 0, 0, 0, 0, 0, 0, 0, 0, 0, 0, 0, 0, 0, 0, 0, 0, 0, 0, 0, 0, 0, 0, 0, 0, 0, 0, 0, 0, 0, 0, 0, 0, 0, 0, 0, 0, 0, 0, 0, 0, 0, 0, 1.5, 3.0, 10.7, 9.2, 7.8, 6.3, 4.9, 3.6], [0, 0, 0, 0, 0, 0, 0, 0, 0, 0, 0, 0, 0, 0, 0, 0, 0, 0, 0, 0, 0, 0, 0, 0, 0, 0, 0, 0, 0, 0, 0, 0, 0, 0, 0, 0, 0, 0, 0, 0, 0, 0, 0, 0, 0, 0, 0, 0, 0, 0, 0, 0, 0, 0, 0, 0, 0, 0, 0, 0, 0, 0, 0, 0, 0, 0, 0, 0, 0, 0, 0, 0, 0, 0, 0, 0, 0, 0, 0, 0, 0, 0, 0, 0, 0, 0, 0, 0, 0, 1.5, 12.2, 10.7, 9.2, 7.8, 6.3, 4.9], [0, 0, 0, 0, 0, 0, 0, 0, 0, 0, 0, 0, 0, 0, 0, 0, 0, 0, 0, 0, 0, 0, 0, 0, 0, 0, 0, 0, 0, 0, 0, 0, 0, 0, 0, 0, 0, 0, 0, 0, 0, 0, 0, 0, 0, 0, 0, 0, 0, 0, 0, 0, 0, 0, 0, 0, 0, 0, 0, 0, 0, 0, 0, 0, 0, 0, 0, 0, 0, 0, 0, 0, 0, 0, 0, 0, 0, 0, 0, 0, 0, 0, 0, 0, 0, 0, 0, 0, 0, 0, 13.6, 12.2, 10.7, 9.2, 7.8, 6.3], [0, 0, 0, 0, 0, 0, 0, 0, 0, 0, 0, 0, 0, 0, 0, 0, 0, 0, 0, 0, 0, 0, 0, 0, 0, 0, 0, 0, 0, 0, 0, 0, 0, 0, 0, 0, 0, 0, 0, 0, 0, 0, 0, 0, 0, 0, 0, 0, 0, 0, 0, 0, 0, 0, 0, 0, 0, 0, 0, 0, 0, 0, 0, 0, 0, 0, 0, 0, 0, 0, 0, 0, 0, 0, 0, 0, 0, 0, 0, 0, 0, 0, 0, 0, 0, 0, 0, 0, 0, 0, 0, 1.5, 3.0, 4.5, 6.0, 7.5], [0, 0, 0, 0, 0, 0, 0, 0, 0, 0, 0, 0, 0, 0, 0, 0, 0, 0, 0, 0, 0, 0, 0, 0, 0, 0, 0, 0, 0, 0, 0, 0, 0, 0, 0, 0, 0, 0, 0, 0, 0, 0, 0, 0, 0, 0, 0, 0, 0, 0, 0, 0, 0, 0, 0, 0, 0, 0, 0, 0, 0, 0, 0, 0, 0, 0, 0, 0, 0, 0, 0, 0, 0, 0, 0, 0, 0, 0, 0, 0, 0, 0, 0, 0, 0, 0, 0, 0, 0, 0, 0, 0, 1.5, 3.0, 4.5, 6.0], [0, 0, 0, 0, 0, 0, 0, 0, 0, 0, 0, 0, 0, 0, 0, 0, 0, 0, 0, 0, 0, 0, 0, 0, 0, 0, 0, 0, 0, 0, 0, 0, 0, 0, 0, 0, 0, 0, 0, 0, 0, 0, 0, 0, 0, 0, 0, 0, 0, 0, 0, 0, 0, 0, 0, 0, 0, 0, 0, 0, 0, 0, 0, 0, 0, 0, 0, 0, 0, 0, 0, 0, 0, 0, 0, 0, 0, 0, 0, 0, 0, 0, 0, 0, 0, 0, 0, 0, 0, 0, 0, 0, 0, 1.5, 3.0, 4.5], [0, 0, 0, 0, 0, 0, 0, 0, 0, 0, 0, 0, 0, 0, 0, 0, 0, 0, 0, 0, 0, 0, 0, 0, 0, 0, 0, 0, 0, 0, 0, 0, 0, 0, 0, 0, 0, 0, 0, 0, 0, 0, 0, 0, 0, 0, 0, 0, 0, 0, 0, 0, 0, 0, 0, 0, 0, 0, 0, 0, 0, 0, 0, 0, 0, 0, 0, 0, 0, 0, 0, 0, 0, 0, 0, 0, 0, 0, 0, 0, 0, 0, 0, 0, 0, 0, 0, 0, 0, 0, 0, 0, 0, 0, 1.5, 3.0], [0, 0, 0, 0, 0, 0, 0, 0, 0, 0, 0, 0, 0, 0, 0, 0, 0, 0, 0, 0, 0, 0, 0, 0, 0, 0, 0, 0, 0, 0, 0, 0, 0, 0, 0, 0, 0, 0, 0, 0, 0, 0, 0, 0, 0, 0, 0, 0, 0, 0, 0, 0, 0, 0, 0, 0, 0, 0, 0, 0, 0, 0, 0, 0, 0, 0, 0, 0, 0, 0, 0, 0, 0, 0, 0, 0, 0, 0, 0, 0, 0, 0, 0, 0, 0, 0, 0, 0, 0, 0, 0, 0, 0, 0, 0, 1.5], [0, 0, 0, 0, 0, 0, 0, 0, 0, 0, 0, 0, 0, 0, 0, 0, 0, 0, 0, 0, 0, 0, 0, 0, 0, 0, 0, 0, 0, 0, 0, 0, 0, 0, 0, 0, 0, 0, 0, 0, 0, 0, 0, 0, 0, 0, 0, 0, 0, 0, 0, 0, 0, 0, 0, 0, 0, 0, 0, 0, 0, 0, 0, 0, 0, 0, 0, 0, 0, 0, 0, 0, 0, 0, 0, 0, 0, 0, 0, 0, 0, 0, 0, 0, 0, 0, 0, 0, 0, 0, 0, 0, 0, 0, 0, 0]];